# IDP simulation

###### VARIABLES #######
variable    t equal 300
variable    damp equal 1000
variable    seedV equal 4928421
variable    seedT equal 3278431
variable    seedtemper equal 32784
variable    dt equal 10.0
variable    thermointrv equal 100000
variable    dumpintrv equal 1000
variable    temperintrv equal 1000
variable    runtime equal 500000000

units       real
dimension   3
boundary    p p p
atom_style  full

bond_style  harmonic
angle_style bch
dihedral_style gaussian

pair_style  ljlambda 0.1 0.0 35.0
dielectric  80.0

read_data   in.data

bond_coeff          1   10.000000    3.800000

angle_coeff         1    4.300000

dihedral_coeff        1    -0.023333
dihedral_coeff        2    0.182500
dihedral_coeff        3    0.125000
dihedral_coeff        4    -0.180000
dihedral_coeff        5    -0.455000
dihedral_coeff        6    -0.187500
dihedral_coeff        7    0.317500
dihedral_coeff        8    0.050000
dihedral_coeff        9    -0.312500
dihedral_coeff       10    -0.035000
dihedral_coeff       11    -0.177500
dihedral_coeff       12    0.287500
dihedral_coeff       13    0.297500
dihedral_coeff       14    0.155000
dihedral_coeff       15    -0.122500
dihedral_coeff       16    1.412500
dihedral_coeff       17    1.145000
dihedral_coeff       18    0.812500
dihedral_coeff       19    1.080000
dihedral_coeff       20    1.422500
dihedral_coeff       21    1.155000
dihedral_coeff       22    0.575000
dihedral_coeff       23    0.392500
dihedral_coeff       24    0.060000
dihedral_coeff       25    -0.540000
dihedral_coeff       26    -0.217500
dihedral_coeff       27    0.327500
dihedral_coeff       28    0.307500
dihedral_coeff       29    -0.015000
dihedral_coeff       30    -0.282500
dihedral_coeff       31    0.020000
dihedral_coeff       32    -0.045000
dihedral_coeff       33    0.382500
dihedral_coeff       34    0.650000
dihedral_coeff       35    0.822500
dihedral_coeff       36    0.145000
dihedral_coeff       37    0.670000
dihedral_coeff       38    -0.157500
dihedral_coeff       39    -0.425000
dihedral_coeff       40    -0.377500
dihedral_coeff       41    0.660000
dihedral_coeff       42    0.030000
dihedral_coeff       43    -0.580000
dihedral_coeff       44    -0.645000
dihedral_coeff       45    -0.567500
dihedral_coeff       46    0.337500
dihedral_coeff       47    -0.350000
dihedral_coeff       48    -0.900000
dihedral_coeff       49    0.605000
dihedral_coeff       50    2.185000
dihedral_coeff       51    0.592500
dihedral_coeff       52    -0.912500
dihedral_coeff       53    -0.072500
dihedral_coeff       54    0.582500
dihedral_coeff       55    -0.445000
dihedral_coeff       56    0.097500
dihedral_coeff       57    0.640000
dihedral_coeff       58    0.250000
dihedral_coeff       59    -0.245000
dihedral_coeff       60    -0.466667

pair_coeff          1       1       0.200000   4.500    0.493530  18.000   0.000
pair_coeff          1       2       0.200000   5.290    0.589119  21.160   0.000
pair_coeff          1       3       0.200000   5.340    0.545000  21.360   0.000
pair_coeff          1       4       0.200000   5.530    0.486177  22.120   0.000
pair_coeff          1       5       0.200000   5.090    0.500883  20.360   0.000
pair_coeff          1       6       0.200000   5.430    0.618530  21.720   0.000
pair_coeff          1       7       0.200000   5.040    0.353824  20.160   0.000
pair_coeff          1       8       0.200000   4.840    0.500883  19.360   0.000
pair_coeff          1       9       0.200000   5.030    0.586177  20.120   0.000
pair_coeff          1      10       0.200000   5.480    0.655295  21.920   0.000
pair_coeff          1      11       0.200000   5.260    0.486177  21.040   0.000
pair_coeff          1      12       0.200000   5.430    0.397942  21.720   0.000
pair_coeff          2       2       0.200000   6.080    0.684707  24.320   0.000
pair_coeff          2       3       0.200000   6.130    0.640589  24.520   0.000
pair_coeff          2       4       0.200000   6.320    0.581766  25.280   0.000
pair_coeff          2       5       0.200000   5.880    0.596471  23.520   0.000
pair_coeff          2       6       0.200000   6.220    0.714119  24.880   0.000
pair_coeff          2       7       0.200000   5.830    0.449413  23.320   0.000
pair_coeff          2       8       0.200000   5.630    0.596471  22.520   0.000
pair_coeff          2       9       0.200000   5.820    0.681765  23.280   0.000
pair_coeff          2      10       0.200000   6.270    0.750883  25.080   0.000
pair_coeff          2      11       0.200000   6.050    0.581766  24.200   0.000
pair_coeff          2      12       0.200000   6.220    0.493531  24.880   0.000
pair_coeff          3       3       0.200000   6.180    0.596471  24.720   0.000
pair_coeff          3       4       0.200000   6.370    0.537648  25.480   0.000
pair_coeff          3       5       0.200000   5.930    0.552354  23.720   0.000
pair_coeff          3       6       0.200000   6.270    0.670000  25.080   0.000
pair_coeff          3       7       0.200000   5.880    0.405295  23.520   0.000
pair_coeff          3       8       0.200000   5.680    0.552354  22.720   0.000
pair_coeff          3       9       0.200000   5.870    0.637648  23.480   0.000
pair_coeff          3      10       0.200000   6.320    0.706765  25.280   0.000
pair_coeff          3      11       0.200000   6.100    0.537648  24.400   0.000
pair_coeff          3      12       0.200000   6.270    0.449413  25.080   0.000
pair_coeff          4       4       0.200000   6.560    0.478824  26.240  35.000
pair_coeff          4       5       0.200000   6.120    0.493530  24.480   0.000
pair_coeff          4       6       0.200000   6.460    0.611177  25.840   0.000
pair_coeff          4       7       0.200000   6.070    0.346471  24.280  35.000
pair_coeff          4       8       0.200000   5.870    0.493530  23.480   0.000
pair_coeff          4       9       0.200000   6.060    0.578824  24.240   0.000
pair_coeff          4      10       0.200000   6.510    0.647942  26.040   0.000
pair_coeff          4      11       0.200000   6.290    0.478824  25.160   0.000
pair_coeff          4      12       0.200000   6.460    0.390589  25.840  35.000
pair_coeff          5       5       0.200000   5.680    0.508236  22.720   0.000
pair_coeff          5       6       0.200000   6.020    0.625883  24.080   0.000
pair_coeff          5       7       0.200000   5.630    0.361178  22.520   0.000
pair_coeff          5       8       0.200000   5.430    0.508236  21.720   0.000
pair_coeff          5       9       0.200000   5.620    0.593530  22.480   0.000
pair_coeff          5      10       0.200000   6.070    0.662648  24.280   0.000
pair_coeff          5      11       0.200000   5.850    0.493530  23.400   0.000
pair_coeff          5      12       0.200000   6.020    0.405295  24.080   0.000
pair_coeff          6       6       0.200000   6.360    0.743530  25.440   0.000
pair_coeff          6       7       0.200000   5.970    0.478825  23.880   0.000
pair_coeff          6       8       0.200000   5.770    0.625883  23.080   0.000
pair_coeff          6       9       0.200000   5.960    0.711177  23.840   0.000
pair_coeff          6      10       0.200000   6.410    0.780295  25.640   0.000
pair_coeff          6      11       0.200000   6.190    0.611177  24.760   0.000
pair_coeff          6      12       0.200000   6.360    0.522942  25.440   0.000
pair_coeff          7       7       0.200000   5.580    0.214119  22.320  35.000
pair_coeff          7       8       0.200000   5.380    0.361178  21.520   0.000
pair_coeff          7       9       0.200000   5.570    0.446472  22.280   0.000
pair_coeff          7      10       0.200000   6.020    0.515589  24.080   0.000
pair_coeff          7      11       0.200000   5.800    0.346471  23.200   0.000
pair_coeff          7      12       0.200000   5.970    0.258237  23.880  35.000
pair_coeff          8       8       0.200000   5.180    0.508236  20.720   0.000
pair_coeff          8       9       0.200000   5.370    0.593530  21.480   0.000
pair_coeff          8      10       0.200000   5.820    0.662648  23.280   0.000
pair_coeff          8      11       0.200000   5.600    0.493530  22.400   0.000
pair_coeff          8      12       0.200000   5.770    0.405295  23.080   0.000
pair_coeff          9       9       0.200000   5.560    0.678824  22.240   0.000
pair_coeff          9      10       0.200000   6.010    0.747942  24.040   0.000
pair_coeff          9      11       0.200000   5.790    0.578824  23.160   0.000
pair_coeff          9      12       0.200000   5.960    0.490589  23.840   0.000
pair_coeff         10      10       0.200000   6.460    0.817059  25.840   0.000
pair_coeff         10      11       0.200000   6.240    0.647942  24.960   0.000
pair_coeff         10      12       0.200000   6.410    0.559707  25.640   0.000
pair_coeff         11      11       0.200000   6.020    0.478824  24.080   0.000
pair_coeff         11      12       0.200000   6.190    0.390589  24.760   0.000
pair_coeff         12      12       0.200000   6.360    0.302354  25.440  35.000

special_bonds lj/coul 0.0 0.0 0.0

neighbor    3.5 multi
neigh_modify  every 10 delay 0

### Energy minimization
minimize    1.0e-4 1.0e-6 1000 100000

### production
timestep    ${dt}
reset_timestep 0

velocity    all create $t ${seedV}
fix         1 all langevin $t $t ${damp} ${seedT}
fix         2 all nve

thermo     ${thermointrv}
thermo_style custom step evdwl ecoul ebond eangle edihed temp

dump       VMD1 all xtc ${dumpintrv} traj.xtc

run     ${runtime}

write_restart restart.bin_protein
