# IDP simulation

###### VARIABLES #######
variable    t equal 300
variable    damp equal 1000
variable    seedV equal 4928421
variable    seedT equal 3278431
variable    seedtemper equal 32784
variable    dt equal 10.0
variable    thermointrv equal 100000
variable    dumpintrv equal 1000
variable    temperintrv equal 100
variable    runtime equal 500000000

units       real
dimension   3
boundary    p p p
atom_style  full

bond_style  harmonic
angle_style bch
dihedral_style gaussian

pair_style  ljlambda 0.1 0.0 35.0
dielectric  80.0

read_data   alanine.data

# bond potential parameters
bond_coeff          1   10.000000    3.800000
# angle potential parameters 
angle_coeff         1    4.300000
# dihedral angle parameters
dihedral_coeff        1    -1.649500
# pairwise coefficients
pair_coeff          1       1       0.200000   5.040    .522942  20.160   0.000

special_bonds lj/coul 0.0 0.0 0.0

neighbor    3.5 multi
neigh_modify  every 10 delay 0

### Energy minimization
minimize    1.0e-4 1.0e-6 1000 100000

### production
timestep    ${dt}
reset_timestep 0

velocity    all create $t ${seedV}
fix         1 all langevin $t $t ${damp} ${seedT}
fix         2 all nve

thermo     ${thermointrv}
thermo_style custom step evdwl ecoul ebond eangle edihed temp

dump       VMD1 all xtc ${dumpintrv} alanine.xtc

run     ${runtime}

write_restart restart.bin_alanine
